p cnf 104 129
c 1 int_RT_ALIGN_SIZE_EQ_4
c 2 int_RT_ALIGN_SIZE_EQ_OTHERVAL
c 3 int_SYSTEM_THREAD_STACK_SIZE_EQ_256
c 4 int_SYSTEM_THREAD_STACK_SIZE_EQ_EMPTY
c 5 int_SYSTEM_THREAD_STACK_SIZE_EQ_OTHERVAL
c 6 int_IDLE_THREAD_STACK_SIZE_EQ_256
c 7 int_IDLE_THREAD_STACK_SIZE_EQ_OTHERVAL
c 8 hex_RT_VER_NUM_EQ_0x40101
c 9 boolean_RT_USING_SMALL_MEM_AS_HEAP
c 10 boolean_RT_USING_MEMHEAP_AS_HEAP
c 11 boolean_RT_USING_MEMHEAP_AUTO_BINDING
c 12 boolean_RT_USING_SLAB_AS_HEAP
c 13 boolean_RT_USING_USERHEAP
c 14 boolean_RT_USING_NOHEAP
c 15 boolean_RT_THREAD_PRIORITY_8
c 16 boolean_RT_THREAD_PRIORITY_32
c 17 boolean_RT_THREAD_PRIORITY_256
c 18 boolean_RT_USING_TINY_FFS
c 19 int_RT_TIMER_THREAD_PRIO_EQ_4
c 20 int_RT_TIMER_THREAD_PRIO_EQ_OTHERVAL
c 21 int_RT_TIMER_THREAD_STACK_SIZE_EQ_512
c 22 int_RT_TIMER_THREAD_STACK_SIZE_EQ_OTHERVAL
c 23 boolean_RT_USING_TIMER_SOFT
c 24 int_RT_CPUS_NR_EQ_2
c 25 int_RT_CPUS_NR_EQ_OTHERVAL
c 26 boolean_RT_USING_SMP
c 27 boolean_RT_USING_MEMPOOL
c 28 boolean_RT_USING_SIGNALS
c 29 boolean_RT_USING_SEMAPHORE
c 30 boolean_RT_USING_OVERFLOW_CHECK
c 31 boolean_RT_USING_MUTEX
c 32 boolean_RT_USING_MESSAGEQUEUE
c 33 boolean_RT_USING_MEMTRACE
c 34 boolean_RT_USING_MAILBOX
c 35 boolean_RT_USING_INTERRUPT_INFO
c 36 boolean_RT_HOOK_USING_FUNC_PTR
c 37 BITMAP_INT_MASTER_BITMAP_int_RT_IDLE_HOOK_LIST_SIZE
c 38 BIT_0_BITMAP_int_RT_IDLE_HOOK_LIST_SIZE
c 39 BIT_1_BITMAP_int_RT_IDLE_HOOK_LIST_SIZE
c 40 BIT_2_BITMAP_int_RT_IDLE_HOOK_LIST_SIZE
c 41 BIT_3_BITMAP_int_RT_IDLE_HOOK_LIST_SIZE
c 42 BIT_4_BITMAP_int_RT_IDLE_HOOK_LIST_SIZE
c 43 boolean_RT_USING_IDLE_HOOK
c 44 boolean_RT_USING_HOOK
c 45 boolean_RT_USING_HEAP_ISR
c 46 boolean_RT_USING_EVENT
c 47 boolean_RT_USING_DEVICE_OPS
c 48 boolean_RT_USING_DEVICE
c 49 int_RT_CONSOLEBUF_SIZE_EQ_128
c 50 int_RT_CONSOLEBUF_SIZE_EQ_OTHERVAL
c 51 string_RT_CONSOLE_DEVICE_NAME_EQ_uart
c 52 boolean_RT_USING_CONSOLE
c 53 boolean_RT_USING_ARCH_DATA_TYPE
c 54 boolean_RT_KSERVICE_USING_TINY_SIZE
c 55 boolean_RT_KSERVICE_USING_STDLIB_MEMORY
c 56 boolean_RT_KSERVICE_USING_STDLIB
c 57 boolean_RT_KPRINTF_USING_LONGLONG
c 58 boolean_RT_DEBUG_COLOR
c 59 int_RT_DEBUG_INIT_EQ_1
c 60 boolean_RT_DEBUG_INIT_CONFIG
c 61 int_RT_DEBUG_IPC_EQ_1
c 62 boolean_RT_DEBUG_IPC_CONFIG
c 63 int_RT_DEBUG_IRQ_EQ_1
c 64 boolean_RT_DEBUG_IRQ_CONFIG
c 65 int_RT_DEBUG_MEMHEAP_EQ_1
c 66 boolean_RT_DEBUG_MEMHEAP_CONFIG
c 67 int_RT_DEBUG_MEM_EQ_1
c 68 boolean_RT_DEBUG_MEM_CONFIG
c 69 int_RT_DEBUG_MODULE_EQ_1
c 70 boolean_RT_DEBUG_MODULE_CONFIG
c 71 int_RT_DEBUG_SCHEDULER_EQ_1
c 72 boolean_RT_DEBUG_SCHEDULER_CONFIG
c 73 int_RT_DEBUG_SLAB_EQ_1
c 74 boolean_RT_DEBUG_SLAB_CONFIG
c 75 int_RT_DEBUG_THREAD_EQ_1
c 76 boolean_RT_DEBUG_THREAD_CONFIG
c 77 int_RT_DEBUG_TIMER_EQ_1
c 78 boolean_RT_DEBUG_TIMER_CONFIG
c 79 boolean_RT_DEBUG
c 80 BIT_0_BITMAP_int_RT_TICK_PER_SECOND
c 81 BIT_1_BITMAP_int_RT_TICK_PER_SECOND
c 82 BIT_2_BITMAP_int_RT_TICK_PER_SECOND
c 83 BIT_3_BITMAP_int_RT_TICK_PER_SECOND
c 84 BIT_4_BITMAP_int_RT_TICK_PER_SECOND
c 85 BIT_5_BITMAP_int_RT_TICK_PER_SECOND
c 86 BIT_6_BITMAP_int_RT_TICK_PER_SECOND
c 87 BIT_7_BITMAP_int_RT_TICK_PER_SECOND
c 88 BIT_8_BITMAP_int_RT_TICK_PER_SECOND
c 89 BIT_9_BITMAP_int_RT_TICK_PER_SECOND
c 90 BIT_0_BITMAP_int_RT_NAME_MAX
c 91 BIT_1_BITMAP_int_RT_NAME_MAX
c 92 BIT_2_BITMAP_int_RT_NAME_MAX
c 93 BIT_3_BITMAP_int_RT_NAME_MAX
c 94 BIT_4_BITMAP_int_RT_NAME_MAX
c 95 BIT_5_BITMAP_int_RT_NAME_MAX
c 96 int_RT_THREAD_PRIORITY_MAX_EQ_256
c 97 int_RT_THREAD_PRIORITY_MAX_EQ_32
c 98 int_RT_THREAD_PRIORITY_MAX_EQ_8
c 99 boolean_RT_MEMHEAP_FAST_MODE
c 100 boolean_RT_MEMHEAP_BSET_MODE
c 101 boolean_RT_USING_MEMHEAP
c 102 boolean_RT_USING_HEAP
c 103 boolean_RT_USING_SLAB
c 104 boolean_RT_USING_SMALL_MEM
-95 -96 0
-94 -96 0
-93 -96 0
-92 -96 0
-91 -96 0
92 93 94 95 96 0
84 85 86 87 88 89 90 0
82 83 85 86 87 88 89 90 0
-85 -86 -87 -88 -89 -90 0
-83 -84 -86 -87 -88 -89 -90 0
-82 -84 -86 -87 -88 -89 -90 0
-81 -84 -86 -87 -88 -89 -90 0
-17 -16 0
-18 -16 0
-18 -17 0
18 17 16 0
-11 -10 0
-12 -10 0
-13 -10 0
-10 -14 0
-15 -10 0
-11 -12 0
-11 -13 0
-11 -14 0
-11 -15 0
-12 -13 0
-12 -14 0
-12 -15 0
-13 -14 0
-15 -13 0
-15 -14 0
11 12 15 13 10 14 0
-12 0
9 0
-7 -8 0
7 8 0
-2 -3 0
2 3 0
80 -59 0
80 -61 0
80 -63 0
80 -65 0
80 -67 0
80 -69 0
80 -71 0
80 -73 0
80 -75 0
80 -77 0
80 -79 0
45 -37 0
57 -56 0
44 -45 0
102 -11 0
28 -29 0
104 -13 0
105 -10 0
-50 -51 0
50 51 -53 0
53 -51 0
53 -50 0
-25 -26 0
25 26 -27 0
27 -26 0
27 -25 0
99 -16 0
16 -99 0
98 -17 0
17 -98 0
97 -18 0
18 -97 0
-20 -21 0
20 21 -24 0
24 -21 0
24 -20 0
-22 -23 0
22 23 -24 0
24 -23 0
24 -22 0
-5 -6 0
-4 -6 0
-4 -5 0
4 5 6 -27 0
27 -6 0
27 -4 0
27 -5 0
52 -53 0
53 -52 0
38 -44 0
44 -38 0
44 -39 0
44 -40 0
44 -41 0
44 -42 0
44 -43 0
39 40 41 42 43 -38 -44 0
-38 -42 -43 -44 0
-38 -41 -43 -44 0
-38 -40 -43 -44 0
-38 -39 -43 -44 0
11 15 104 105 14 -103 0
-103 -15 0
103 15 -105 0
103 15 105 -104 0
103 104 105 -11 0
103 104 105 -14 0
-101 -100 0
101 100 -102 0
102 -100 0
102 -101 0
60 -61 0
61 -60 0
62 -63 0
63 -62 0
64 -65 0
65 -64 0
68 -69 0
69 -68 0
66 -67 0
67 -66 0
70 -71 0
71 -70 0
72 -73 0
73 -72 0
74 -75 0
75 -74 0
76 -77 0
77 -76 0
78 -79 0
79 -78 0
